c Sudoku solution
p cnf 729 0
115 0
121 0
153 0
176 0
213 0
291 0
326 0
344 0
387 0
442 0
451 0
361 0
523 0
598 0
632 0
649 0
685 0
754 0
814 0
835 0
425 0
862 0
918 0
922 0
312 0
252 0
979 0
984 0
246 0
547 0
148 0
727 0
829 0
769 0
858 0
957 0
966 0
656 0
555 0
564 0
359 0
265 0
167 0
237 0
289 0
182 0
194 0
278 0
139 0
224 0
338 0
628 0
434 0
468 0
663 0
674 0
697 0
473 0
417 0
611 0
536 0
519 0
716 0
375 0
393 0
877 0
788 0
581 0
572 0
771 0
792 0
995 0
733 0
931 0
745 0
841 0
943 0
883 0
896 0
486 0
499 0
